(declare-fun I0_2 () Int)
(declare-fun I0_5 () Int)
(declare-fun I0_7 () Int)
(declare-fun I1_5 () Int)
(declare-fun I2_5 () Int)
(declare-fun PCTEMP_LHS_1 () Int)
(declare-fun PCTEMP_LHS_2 () String)
(declare-fun PCTEMP_LHS_3 () Int)
(declare-fun T0_2 () String)
(declare-fun T0_7 () String)
(declare-fun T1_2 () String)
(declare-fun T1_5 () String)
(declare-fun T1_7 () String)
(declare-fun T2_2 () String)
(declare-fun T2_5 () String)
(declare-fun T2_7 () String)
(declare-fun T3_2 () String)
(declare-fun T3_5 () String)
(declare-fun T3_7 () String)
(declare-fun T4_2 () String)
(declare-fun T4_7 () String)
(declare-fun T5_2 () String)
(declare-fun T5_7 () String)
(declare-fun T_2 () Int)
(declare-fun T_5 () Bool)
(declare-fun T_6 () Bool)
(declare-fun T_7 () Bool)
(declare-fun T_8 () Bool)
(declare-fun T_SELECT_1 () Bool)
(declare-fun T_SELECT_2 () Bool)
(declare-fun var_0xINPUT_8 () String)
(assert (= T_SELECT_1 (not (= PCTEMP_LHS_1 (- 1)))))
(assert (ite T_SELECT_1 (and (= PCTEMP_LHS_1 (+ I0_2 0)) (= var_0xINPUT_8 (Concat T0_2 T1_2)) (= I0_2 (Length T4_2)) (= 0 (Length T0_2)) (= T1_2 (Concat T2_2 T3_2)) (= T2_2 (Concat T4_2 T5_2)) (= T5_2 "=") (not (= T4_2 "="))) (and (= PCTEMP_LHS_1 (- 1)) (= var_0xINPUT_8 (Concat T0_2 T1_2)) (= 0 (Length T0_2)) (not (= T1_2 "=")))))
(assert (= T_2 (+ PCTEMP_LHS_1 1)))
(assert (= I0_5 (- I2_5 T_2)))
(assert (>= T_2 0))
(assert (>= I2_5 T_2))
(assert (<= I2_5 I1_5))
(assert (= I2_5 I1_5))
(assert (= I0_5 (Length PCTEMP_LHS_2)))
(assert (= var_0xINPUT_8 (Concat T1_5 T2_5)))
(assert (= T2_5 (Concat PCTEMP_LHS_2 T3_5)))
(assert (= T_2 (Length T1_5)))
(assert (= I1_5 (Length var_0xINPUT_8)))
(assert (= T_SELECT_2 (not (= PCTEMP_LHS_3 (- 1)))))
(assert (ite T_SELECT_2 (and (= PCTEMP_LHS_3 (+ I0_7 0)) (= PCTEMP_LHS_2 (Concat T0_7 T1_7)) (= I0_7 (Length T4_7)) (= 0 (Length T0_7)) (= T1_7 (Concat T2_7 T3_7)) (= T2_7 (Concat T4_7 T5_7)) (= T5_7 "X") (not (= T4_7 "X"))) (and (= PCTEMP_LHS_3 (- 1)) (= PCTEMP_LHS_2 (Concat T0_7 T1_7)) (= 0 (Length T0_7)) (not (= T1_7 "X")))))
(assert (= T_5 (< PCTEMP_LHS_3 0)))
(assert T_5)
(assert (= T_6 (= PCTEMP_LHS_2 "onmouseover")))
(assert (= T_7 (not T_6)))
(assert T_7)
(assert (= T_8 (not (= PCTEMP_LHS_2 "onmouseover"))))
(assert T_8)
(check-sat)
